50

100 19 202
99 1 309
95 40 208
94 22 347
87 29 225
85 36 404
85 3 196
83 42 325
81 8 347
81 4 371
80 17 307
80 25 174
77 12 377
76 11 413
75 32 251
74 35 403
73 30 268
73 3 200
72 32 312
66 14 243
63 20 442
60 2 441
52 7 178
50 20 238
47 12 446
45 13 353
44 4 430
43 17 279
39 11 295
39 18 406
38 6 400
38 3 450
35 8 387
34 13 204
33 11 217
32 16 276
25 11 377
25 5 206
23 4 173
20 7 392
17 5 303
15 8 222
15 4 234
14 3 449
12 6 362
11 5 419
10 1 413
10 5 273
8 1 413
8 4 399
